HUN,8,6,485
3,29,1,25,5,28,2,28,0,23,4,28
1,25,2,27,3,22,4,23,5,21,0,29
3,25,2,26,1,21,5,27,0,23,4,24
3,25,5,22,1,25,0,26,2,23,4,26
2,23,0,28,4,28,1,23,3,23,5,24
5,30,1,26,3,26,2,27,0,24,4,21
5,27,3,25,1,26,0,24,4,26,2,28
3,21,5,30,2,21,0,21,1,22,4,30
